p tw 59 615
0 1
0 2
0 3
0 4
0 5
0 6
0 11
0 12
0 13
0 8
0 19
0 32
0 41
0 44
0 10
0 15
0 26
0 9
0 14
0 34
0 42
0 54
0 55
0 17
0 31
0 43
0 53
0 18
0 38
0 39
0 7
0 21
0 27
0 20
0 35
0 52
1 2
1 3
1 4
1 5
1 6
1 9
1 25
1 26
1 27
1 28
1 10
1 17
1 19
1 29
1 30
1 31
1 16
1 32
1 39
1 43
1 56
1 57
1 58
2 3
2 4
2 5
2 14
2 22
2 23
2 34
2 45
2 53
2 8
2 19
2 32
2 41
2 44
2 10
2 15
2 26
2 9
2 13
2 49
2 54
2 18
2 21
2 29
2 39
2 52
3 4
3 5
3 20
3 32
3 33
3 37
3 41
3 56
4 5
4 6
4 7
4 8
4 9
4 10
4 11
4 12
4 13
4 14
4 36
4 41
4 44
4 45
4 30
4 34
4 48
4 15
4 26
4 17
4 31
4 43
4 53
4 24
4 32
4 50
5 14
5 15
5 16
5 17
5 18
5 19
5 22
5 25
5 28
5 32
5 33
5 34
6 7
6 8
6 9
6 10
6 11
6 12
6 13
6 19
6 20
6 21
6 22
6 23
6 24
6 25
6 26
6 27
6 28
6 18
6 41
6 46
6 51
6 45
6 54
6 35
6 52
7 8
7 9
7 10
7 17
7 21
7 27
7 41
7 43
7 24
7 32
7 36
7 50
8 9
8 10
8 11
8 15
8 28
8 30
8 32
8 33
8 14
8 36
8 41
8 44
8 45
8 29
8 39
8 40
8 50
8 19
8 18
8 46
8 51
8 12
8 37
8 42
9 10
9 25
9 26
9 27
9 28
9 13
9 32
9 34
9 49
9 54
9 14
9 42
9 55
9 15
9 35
9 37
9 43
9 52
10 17
10 19
10 29
10 30
10 31
10 21
10 35
10 37
10 46
10 47
10 15
10 26
10 18
10 42
10 52
11 12
11 13
11 15
11 28
11 30
11 32
11 33
11 17
11 43
11 44
11 48
11 18
11 41
11 46
11 51
11 25
11 26
11 45
11 21
11 54
12 13
12 39
12 40
12 41
12 42
12 43
12 17
12 31
12 53
12 37
12 45
13 32
13 34
13 49
13 54
13 21
13 45
13 20
13 27
13 35
13 52
14 15
14 16
14 17
14 18
14 19
14 36
14 41
14 44
14 45
14 29
14 39
14 40
14 50
14 22
14 23
14 34
14 53
14 42
14 54
14 55
14 21
14 52
15 16
15 17
15 18
15 19
15 28
15 30
15 32
15 33
15 24
15 31
15 35
15 44
15 49
15 26
15 38
15 39
15 43
15 37
15 52
16 17
16 18
16 19
16 26
16 30
16 35
16 36
16 37
16 38
16 32
16 39
16 43
17 18
17 19
17 29
17 30
17 31
17 22
17 25
17 32
17 48
17 49
17 43
17 44
17 26
17 45
17 46
17 53
17 56
17 57
17 58
17 21
17 27
17 41
18 19
18 22
18 25
18 32
18 48
18 49
18 41
18 46
18 51
18 26
18 29
18 35
18 42
18 52
18 21
18 39
18 38
18 43
18 44
19 20
19 21
19 22
19 23
19 24
19 29
19 30
19 31
19 32
19 41
19 44
20 21
20 22
20 23
20 24
20 32
20 33
20 37
20 41
20 56
20 27
20 35
20 52
21 22
21 23
21 24
21 35
21 37
21 46
21 47
21 29
21 39
21 52
21 45
21 54
21 27
21 41
21 43
22 23
22 24
22 25
22 28
22 32
22 33
22 34
22 48
22 49
22 26
22 45
22 46
22 51
22 52
22 53
23 24
23 34
23 45
23 53
24 31
24 35
24 44
24 49
24 32
24 36
24 43
24 50
25 26
25 27
25 28
25 32
25 33
25 34
25 48
25 49
25 45
25 46
25 51
25 52
25 43
25 37
25 39
25 55
25 56
25 29
25 57
25 58
26 27
26 28
26 30
26 35
26 36
26 37
26 38
26 45
26 46
26 51
26 52
26 43
26 29
26 42
27 28
27 41
27 43
27 35
27 52
28 32
28 33
28 34
28 30
28 37
28 39
28 51
28 55
28 56
29 30
29 31
29 39
29 40
29 50
29 35
29 42
29 52
29 56
29 57
29 58
30 31
30 32
30 33
30 35
30 36
30 37
30 38
30 34
30 41
30 44
30 48
31 35
31 44
31 49
31 43
31 53
32 33
32 34
32 39
32 43
32 48
32 49
32 44
32 41
32 54
32 37
32 56
32 36
32 50
33 34
33 37
33 41
33 56
34 45
34 53
34 41
34 44
34 48
34 49
34 54
34 42
34 55
35 36
35 37
35 38
35 46
35 47
35 44
35 49
35 42
35 52
35 43
36 37
36 38
36 41
36 44
36 45
36 43
36 50
37 38
37 46
37 47
37 41
37 56
37 39
37 51
37 55
37 43
37 52
37 40
37 42
37 45
38 39
38 43
38 44
39 40
39 41
39 42
39 43
39 50
39 51
39 55
39 56
39 52
39 44
40 41
40 42
40 43
40 50
40 45
41 42
41 43
41 44
41 45
41 48
41 46
41 51
41 56
42 43
42 54
42 55
42 52
42 45
43 44
43 48
43 45
43 46
43 53
43 50
43 52
44 45
44 48
44 49
45 46
45 51
45 52
45 53
45 54
46 47
46 51
46 52
48 49
49 54
51 52
51 55
51 56
54 55
55 56
56 57
56 58
57 58
